# Objective value = 21
x0,1_6 0
x0,1_16 0
x0,1_17 0
x0,1_18 0
x0,1_22 0
x0,1_23 0
x0,1_24 0
x0,1_29 0
x0,1_33 0
x0,1_35 0
x0,1_41 0
x0,1_45 0
x0,1_47 0
x0,1_51 1
x0,1_57 0
x0,1_64 0
x0,1_69 0
x0,1_80 0
x0,1_86 0
x0,1_102 0
x0,2_6 0
x0,2_16 0
x0,2_17 0
x0,2_18 0
x0,2_22 0
x0,2_23 0
x0,2_24 0
x0,2_29 0
x0,2_33 0
x0,2_35 0
x0,2_41 0
x0,2_45 0
x0,2_47 0
x0,2_51 0
x0,2_57 0
x0,2_64 0
x0,2_69 0
x0,2_80 0
x0,2_86 0
x0,2_102 0
x0,3_6 0
x0,3_16 0
x0,3_17 0
x0,3_18 0
x0,3_22 0
x0,3_23 0
x0,3_24 0
x0,3_29 0
x0,3_33 0
x0,3_35 0
x0,3_41 0
x0,3_45 0
x0,3_47 0
x0,3_51 0
x0,3_57 0
x0,3_64 0
x0,3_69 0
x0,3_80 0
x0,3_86 0
x0,3_102 0
x0,4_6 0
x0,4_16 0
x0,4_17 0
x0,4_18 0
x0,4_22 0
x0,4_23 0
x0,4_24 0
x0,4_29 0
x0,4_33 0
x0,4_35 0
x0,4_41 0
x0,4_45 0
x0,4_47 0
x0,4_51 0
x0,4_57 0
x0,4_64 0
x0,4_69 0
x0,4_80 0
x0,4_86 0
x0,4_102 0
x0,5_6 0
x0,5_16 0
x0,5_17 0
x0,5_18 0
x0,5_22 0
x0,5_23 0
x0,5_24 0
x0,5_29 0
x0,5_33 0
x0,5_35 0
x0,5_41 0
x0,5_45 0
x0,5_47 0
x0,5_51 0
x0,5_57 0
x0,5_64 0
x0,5_69 0
x0,5_80 0
x0,5_86 0
x0,5_102 0
x0,6_6 0
x0,6_16 0
x0,6_17 0
x0,6_18 0
x0,6_22 0
x0,6_23 0
x0,6_24 0
x0,6_29 0
x0,6_33 0
x0,6_35 0
x0,6_41 0
x0,6_45 0
x0,6_47 0
x0,6_51 0
x0,6_57 0
x0,6_64 0
x0,6_69 0
x0,6_80 0
x0,6_86 0
x0,6_102 0
x0,7_6 0
x0,7_16 0
x0,7_17 0
x0,7_18 0
x0,7_22 0
x0,7_23 0
x0,7_24 0
x0,7_29 0
x0,7_33 0
x0,7_35 0
x0,7_41 0
x0,7_45 0
x0,7_47 0
x0,7_51 0
x0,7_57 0
x0,7_64 0
x0,7_69 0
x0,7_80 0
x0,7_86 0
x0,7_102 0
x1,2_6 0
x1,2_16 1
x1,2_17 0
x1,2_18 0
x1,2_22 0
x1,2_23 0
x1,2_24 0
x1,2_29 0
x1,2_33 0
x1,2_35 0
x1,2_41 0
x1,2_45 0
x1,2_47 0
x1,2_51 0
x1,2_57 0
x1,2_64 0
x1,2_69 0
x1,2_80 0
x1,2_86 0
x1,2_102 0
x1,3_6 0
x1,3_16 0
x1,3_17 0
x1,3_18 0
x1,3_22 0
x1,3_23 0
x1,3_24 0
x1,3_29 0
x1,3_33 1
x1,3_35 0
x1,3_41 0
x1,3_45 0
x1,3_47 0
x1,3_51 0
x1,3_57 0
x1,3_64 0
x1,3_69 0
x1,3_80 0
x1,3_86 0
x1,3_102 0
x1,4_6 0
x1,4_16 0
x1,4_17 0
x1,4_18 0
x1,4_22 0
x1,4_23 0
x1,4_24 0
x1,4_29 0
x1,4_33 0
x1,4_35 0
x1,4_41 0
x1,4_45 0
x1,4_47 0
x1,4_51 0
x1,4_57 0
x1,4_64 0
x1,4_69 0
x1,4_80 0
x1,4_86 0
x1,4_102 0
x1,5_6 0
x1,5_16 0
x1,5_17 0
x1,5_18 0
x1,5_22 0
x1,5_23 0
x1,5_24 0
x1,5_29 0
x1,5_33 0
x1,5_35 0
x1,5_41 0
x1,5_45 0
x1,5_47 0
x1,5_51 0
x1,5_57 1
x1,5_64 0
x1,5_69 0
x1,5_80 0
x1,5_86 0
x1,5_102 0
x1,6_6 0
x1,6_16 0
x1,6_17 0
x1,6_18 0
x1,6_22 0
x1,6_23 0
x1,6_24 0
x1,6_29 0
x1,6_33 0
x1,6_35 0
x1,6_41 0
x1,6_45 0
x1,6_47 0
x1,6_51 0
x1,6_57 0
x1,6_64 0
x1,6_69 0
x1,6_80 1
x1,6_86 0
x1,6_102 0
x1,7_6 0
x1,7_16 0
x1,7_17 0
x1,7_18 0
x1,7_22 0
x1,7_23 0
x1,7_24 0
x1,7_29 0
x1,7_33 0
x1,7_35 0
x1,7_41 0
x1,7_45 0
x1,7_47 0
x1,7_51 0
x1,7_57 0
x1,7_64 0
x1,7_69 0
x1,7_80 0
x1,7_86 0
x1,7_102 1
x2,3_6 0
x2,3_16 0
x2,3_17 1
x2,3_18 0
x2,3_22 0
x2,3_23 0
x2,3_24 0
x2,3_29 0
x2,3_33 0
x2,3_35 0
x2,3_41 0
x2,3_45 0
x2,3_47 0
x2,3_51 0
x2,3_57 0
x2,3_64 0
x2,3_69 0
x2,3_80 0
x2,3_86 0
x2,3_102 0
x2,4_6 0
x2,4_16 0
x2,4_17 0
x2,4_18 0
x2,4_22 0
x2,4_23 0
x2,4_24 0
x2,4_29 0
x2,4_33 0
x2,4_35 1
x2,4_41 0
x2,4_45 0
x2,4_47 0
x2,4_51 0
x2,4_57 0
x2,4_64 0
x2,4_69 0
x2,4_80 0
x2,4_86 0
x2,4_102 0
x2,5_6 0
x2,5_16 0
x2,5_17 0
x2,5_18 0
x2,5_22 0
x2,5_23 0
x2,5_24 0
x2,5_29 0
x2,5_33 0
x2,5_35 0
x2,5_41 1
x2,5_45 0
x2,5_47 0
x2,5_51 0
x2,5_57 0
x2,5_64 0
x2,5_69 0
x2,5_80 0
x2,5_86 0
x2,5_102 0
x2,6_6 0
x2,6_16 0
x2,6_17 0
x2,6_18 0
x2,6_22 0
x2,6_23 0
x2,6_24 0
x2,6_29 0
x2,6_33 0
x2,6_35 0
x2,6_41 0
x2,6_45 0
x2,6_47 0
x2,6_51 0
x2,6_57 0
x2,6_64 1
x2,6_69 0
x2,6_80 0
x2,6_86 0
x2,6_102 0
x2,7_6 0
x2,7_16 0
x2,7_17 0
x2,7_18 0
x2,7_22 0
x2,7_23 0
x2,7_24 0
x2,7_29 0
x2,7_33 0
x2,7_35 0
x2,7_41 0
x2,7_45 0
x2,7_47 0
x2,7_51 0
x2,7_57 0
x2,7_64 0
x2,7_69 0
x2,7_80 0
x2,7_86 1
x2,7_102 0
x3,4_6 0
x3,4_16 0
x3,4_17 0
x3,4_18 1
x3,4_22 0
x3,4_23 0
x3,4_24 0
x3,4_29 0
x3,4_33 0
x3,4_35 0
x3,4_41 0
x3,4_45 0
x3,4_47 0
x3,4_51 0
x3,4_57 0
x3,4_64 0
x3,4_69 0
x3,4_80 0
x3,4_86 0
x3,4_102 0
x3,5_6 0
x3,5_16 0
x3,5_17 0
x3,5_18 0
x3,5_22 0
x3,5_23 0
x3,5_24 1
x3,5_29 0
x3,5_33 0
x3,5_35 0
x3,5_41 0
x3,5_45 0
x3,5_47 0
x3,5_51 0
x3,5_57 0
x3,5_64 0
x3,5_69 0
x3,5_80 0
x3,5_86 0
x3,5_102 0
x3,6_6 0
x3,6_16 0
x3,6_17 0
x3,6_18 0
x3,6_22 0
x3,6_23 0
x3,6_24 0
x3,6_29 0
x3,6_33 0
x3,6_35 0
x3,6_41 0
x3,6_45 0
x3,6_47 1
x3,6_51 0
x3,6_57 0
x3,6_64 0
x3,6_69 0
x3,6_80 0
x3,6_86 0
x3,6_102 0
x3,7_6 0
x3,7_16 0
x3,7_17 0
x3,7_18 0
x3,7_22 0
x3,7_23 0
x3,7_24 0
x3,7_29 0
x3,7_33 0
x3,7_35 0
x3,7_41 0
x3,7_45 0
x3,7_47 0
x3,7_51 0
x3,7_57 0
x3,7_64 0
x3,7_69 1
x3,7_80 0
x3,7_86 0
x3,7_102 0
x4,5_6 1
x4,5_16 0
x4,5_17 0
x4,5_18 0
x4,5_22 0
x4,5_23 0
x4,5_24 0
x4,5_29 0
x4,5_33 0
x4,5_35 0
x4,5_41 0
x4,5_45 0
x4,5_47 0
x4,5_51 0
x4,5_57 0
x4,5_64 0
x4,5_69 0
x4,5_80 0
x4,5_86 0
x4,5_102 0
x4,6_6 0
x4,6_16 0
x4,6_17 0
x4,6_18 0
x4,6_22 0
x4,6_23 0
x4,6_24 0
x4,6_29 1
x4,6_33 0
x4,6_35 0
x4,6_41 0
x4,6_45 0
x4,6_47 0
x4,6_51 0
x4,6_57 0
x4,6_64 0
x4,6_69 0
x4,6_80 0
x4,6_86 0
x4,6_102 0
x4,7_6 0
x4,7_16 0
x4,7_17 0
x4,7_18 0
x4,7_22 0
x4,7_23 0
x4,7_24 0
x4,7_29 0
x4,7_33 0
x4,7_35 0
x4,7_41 0
x4,7_45 0
x4,7_47 0
x4,7_51 1
x4,7_57 0
x4,7_64 0
x4,7_69 0
x4,7_80 0
x4,7_86 0
x4,7_102 0
x5,6_6 0
x5,6_16 0
x5,6_17 0
x5,6_18 0
x5,6_22 0
x5,6_23 1
x5,6_24 0
x5,6_29 0
x5,6_33 0
x5,6_35 0
x5,6_41 0
x5,6_45 0
x5,6_47 0
x5,6_51 0
x5,6_57 0
x5,6_64 0
x5,6_69 0
x5,6_80 0
x5,6_86 0
x5,6_102 0
x5,7_6 0
x5,7_16 0
x5,7_17 0
x5,7_18 0
x5,7_22 0
x5,7_23 0
x5,7_24 0
x5,7_29 0
x5,7_33 0
x5,7_35 0
x5,7_41 0
x5,7_45 1
x5,7_47 0
x5,7_51 0
x5,7_57 0
x5,7_64 0
x5,7_69 0
x5,7_80 0
x5,7_86 0
x5,7_102 0
x6,7_6 0
x6,7_16 0
x6,7_17 0
x6,7_18 0
x6,7_22 1
x6,7_23 0
x6,7_24 0
x6,7_29 0
x6,7_33 0
x6,7_35 0
x6,7_41 0
x6,7_45 0
x6,7_47 0
x6,7_51 0
x6,7_57 0
x6,7_64 0
x6,7_69 0
x6,7_80 0
x6,7_86 0
x6,7_102 0
p0 0
p1 51
p2 67
p3 84
p4 102
p5 108
p6 131
p7 153
